! HF-3c
%method
 RunTyp Gradient
 end
*xyz 0 1
C -1.035522 -0.173335 -0.008704
N 0.057883 -0.058374 0.017867
H 0.977639 0.231709 -0.009164
*
